NAME : traveling-santa-2018-prime-paths.29017.tour
COMMENT : Length = 29017
COMMENT : Found by LKH [Keld Helsgaun] Sun Jun 12 19:59:17 2022
TYPE : TOUR
DIMENSION : 100
TOUR_SECTION
1
52
48
20
19
98
77
62
58
61
89
74
82
56
100
90
87
40
37
22
28
12
14
29
51
35
92
38
66
27
42
9
72
96
78
97
21
67
26
8
13
39
73
18
65
59
79
83
6
60
70
46
25
75
31
2
30
80
95
41
47
50
44
69
94
36
81
76
86
84
32
24
10
64
93
17
16
91
99
15
7
53
55
3
57
68
23
5
34
88
11
71
63
33
49
45
4
43
85
54
-1
EOF
